(set-logic ALL)
(declare-fun seed0_key2 () String)
(declare-fun seed0_value2 () String)
(assert (and (or (and (and (and (and (and (and (and (and (and (and (and (not (= (ite (= (str.len (str.substr seed0_value2 1 (- (str.len seed0_value2) 1))) 0) 1 0) 0)) (not (= (ite (= (str.at seed0_value2 0) "\u{a}") 1 0) 0))) (= (ite (= (str.at seed0_value2 0) "\u{9}") 1 0) 0)) (= (ite (= (str.at seed0_value2 0) " ") 1 0) 0)) (= (ite (= (str.len seed0_value2) 0) 1 0) 0)) (not (= (ite (= (str.indexof seed0_value2 "=" 0) (- 1)) 1 0) 0))) (= (ite (not (= (str.indexof seed0_value2 "=" 0) (- 1))) 1 0) 0)) (= (ite (str.contains seed0_value2 ",") 1 0) 0)) (= (ite (= (str.len seed0_value2) 0) 1 0) 0)) (not (= (ite (= seed0_key2 "cache-control") 1 0) 0))) (not (= (ite (= seed0_key2 "cache-control") 1 0) 0))) (>= 1 0)) (or (str.suffixof (str.++ seed0_key2 "tUcCQkg01") (str.++ seed0_value2 "lNwt2aHXnyJdA7VDmU")) (str.suffixof (str.++ seed0_key2 "mKLx0tpbucQG") (str.++ seed0_key2 "FIitavrcHjY")))) (or (>= (- (str.len seed0_value2) 1) 0) (or (str.<= (str.++ seed0_key2 "zF56agfRZ9I12KeQWw") (str.++ seed0_key2 "pN3jLUlSrkxE2iDwHevP")) (str.< (str.++ seed0_key2 "nF2juR7BLze8EhcYkl3") (str.++ seed0_value2 "YAfohksNr"))))))
(check-sat)
(exit)